c Result of efficient AIG-to-CNF conversion using package CNF
p cnf 365 1256
2 301 302 -23 0
2 301 302 -3 0
-2 -301 0
-2 -302 0
-2 3 23 0
3 312 4 7 -13 0
-3 -312 0
-3 13 0
-3 -7 0
-3 -4 0
-4 5 6 0
4 -5 0
4 -6 0
-5 313 314 0
5 -313 0
5 -314 0
-6 315 316 0
6 -315 0
6 -316 0
-7 8 9 0
7 -8 0
7 -9 0
-8 317 318 319 320 0
8 -320 0
8 -319 0
8 -317 0
8 -318 0
-9 321 322 10 0
9 -10 0
9 -322 0
9 -321 0
-10 327 328 11 12 0
10 -327 0
10 -12 0
10 -11 0
10 -328 0
-11 325 326 0
11 -325 0
11 -326 0
-12 323 324 0
12 -323 0
12 -324 0
13 14 17 -18 21 0
-13 18 0
-13 -21 0
-13 -14 0
-13 -17 0
-14 310 311 15 0
14 -15 0
14 -311 0
14 -310 0
-15 305 306 307 16 0
15 -16 0
15 -307 0
15 -305 0
15 -306 0
-16 308 309 0
16 -308 0
16 -309 0
-17 303 304 0
17 -303 0
17 -304 0
18 329 -19 0
-18 -329 0
-18 19 0
19 330 -20 0
-19 -330 0
-19 20 0
20 331 332 -333 0
20 -301 331 332 0
-20 -332 0
-20 -331 0
-20 301 333 0
21 329 -22 0
-21 -329 0
-21 22 0
22 330 331 332 -333 0
-22 333 0
-22 -332 0
-22 -330 0
-22 -331 0
23 303 304 -231 0
23 303 304 -24 0
-23 -303 0
-23 -304 0
-23 24 231 0
24 328 25 -30 0
24 -328 25 -137 0
-24 -25 0
-24 -328 137 0
-24 328 30 0
-25 6 14 26 0
25 -6 0
25 -14 0
25 -26 0
-26 312 27 0
26 -312 0
26 -27 0
-27 327 5 28 29 0
27 -327 0
27 -29 0
27 -28 0
27 -5 0
-28 321 322 8 0
28 -8 0
28 -322 0
28 -321 0
-29 323 324 325 326 0
29 -326 0
29 -325 0
29 -323 0
29 -324 0
-30 31 125 0
-30 31 61 -104 0
30 -31 0
30 -61 -125 0
30 104 -125 0
31 329 -50 0
31 -329 -32 43 0
-31 329 50 0
-31 -329 32 0
-31 -329 -43 0
32 330 -33 0
32 -330 -38 0
-32 -330 38 0
-32 330 33 0
33 331 -34 0
33 -331 -36 0
-33 -331 36 0
-33 331 34 0
34 332 -35 0
34 -332 -354 0
34 -322 -332 0
-34 332 35 0
-34 322 -332 354 0
-35 323 355 0
35 -323 0
35 -355 0
36 332 -37 0
36 -332 -352 0
36 -320 -332 0
-36 332 37 0
-36 320 -332 352 0
-37 321 353 0
37 -321 0
37 -353 0
38 331 -39 0
38 -331 -41 0
-38 -331 41 0
-38 331 39 0
39 332 -40 0
39 -332 -350 0
39 -318 -332 0
-39 332 40 0
-39 318 -332 350 0
-40 319 351 0
40 -319 0
40 -351 0
41 332 -42 0
41 -332 -348 0
41 -316 -332 0
-41 332 42 0
-41 316 -332 348 0
-42 317 349 0
42 -317 0
42 -349 0
43 330 -44 0
43 -330 -47 0
-43 -330 47 0
-43 330 44 0
44 331 -45 0
44 -331 -46 0
-44 -331 46 0
-44 331 45 0
45 -332 -354 0
45 332 -355 0
-45 332 355 0
-45 -332 354 0
46 -332 -352 0
46 332 -353 0
-46 332 353 0
-46 -332 352 0
47 331 -48 0
47 -331 -49 0
-47 -331 49 0
-47 331 48 0
48 -332 -350 0
48 332 -351 0
-48 332 351 0
-48 -332 350 0
49 -332 -348 0
49 332 -349 0
-49 332 349 0
-49 -332 348 0
-50 330 331 0
-50 51 58 0
-50 331 51 0
-50 330 58 0
50 -330 -51 0
50 -331 -58 0
-51 331 55 0
-51 -331 52 0
51 -331 -52 0
51 331 -55 0
52 332 357 -53 0
52 -332 356 -53 0
-52 53 0
-52 332 -357 0
-52 -332 -356 0
53 -325 332 0
53 -332 -54 0
53 332 -357 0
-53 -332 54 0
-53 325 332 357 0
-54 324 356 0
54 -324 0
54 -356 0
55 332 359 -56 0
55 -332 358 -56 0
-55 56 0
-55 332 -359 0
-55 -332 -358 0
56 -327 332 0
56 -332 -57 0
56 332 -359 0
-56 -332 57 0
-56 327 332 359 0
-57 326 358 0
57 -326 0
57 -358 0
58 330 332 -60 0
58 330 -332 -59 0
-58 -330 0
-58 -332 59 0
-58 332 60 0
59 -328 360 0
-59 328 0
-59 -360 0
60 -329 361 0
-60 329 0
-60 -361 0
-61 62 77 86 0
-61 62 -82 86 0
61 -86 0
61 -62 0
61 -77 82 0
-62 330 70 0
-62 -330 63 0
62 -330 -63 0
62 330 -70 0
63 -331 -64 0
63 331 -67 69 0
-63 331 -69 0
-63 -331 64 0
-63 331 67 0
64 332 350 -65 0
64 -332 349 -65 0
-64 65 0
-64 332 -350 0
-64 -332 -349 0
65 332 -66 0
65 -332 -349 0
65 -317 -332 0
-65 332 66 0
-65 317 -332 349 0
-66 318 350 0
66 -318 0
66 -350 0
67 332 -68 0
67 -332 -351 0
67 -319 -332 0
-67 332 68 0
-67 319 -332 351 0
-68 320 352 0
68 -320 0
68 -352 0
69 -332 -351 0
69 332 -352 0
-69 332 352 0
-69 -332 351 0
70 331 -71 75 0
70 -331 -71 76 0
-70 71 0
-70 -331 -76 0
-70 331 -75 0
71 331 -72 0
71 -331 -73 0
-71 -331 73 0
-71 331 72 0
72 332 -54 0
72 -332 -355 0
72 -323 -332 0
-72 332 54 0
-72 323 -332 355 0
73 332 -74 0
73 -332 -353 0
73 -321 -332 0
-73 332 74 0
-73 321 -332 353 0
-74 322 354 0
74 -322 0
74 -354 0
75 -332 -355 0
75 332 -356 0
-75 332 356 0
-75 -332 355 0
76 -332 -353 0
76 332 -354 0
-76 332 354 0
-76 -332 353 0
-77 330 81 0
-77 -330 78 0
77 -330 -78 0
77 330 -81 0
78 331 -41 0
78 -331 -79 0
-78 -331 79 0
-78 331 41 0
79 332 -80 0
79 -332 -346 0
79 -314 -332 0
-79 332 80 0
-79 314 -332 346 0
-80 315 347 0
80 -315 0
80 -347 0
81 331 -36 0
81 -331 -39 0
-81 -331 39 0
-81 331 36 0
82 330 -83 0
82 -330 -84 0
-82 -330 84 0
-82 330 83 0
83 331 -46 0
83 -331 -48 0
-83 -331 48 0
-83 331 46 0
84 331 -49 0
84 -331 -85 0
-84 -331 85 0
-84 331 49 0
85 -332 -346 0
85 332 -347 0
-85 332 347 0
-85 -332 346 0
-86 -91 94 0
-86 87 -99 0
-86 87 94 0
-86 -91 -99 0
86 -87 91 0
86 -94 99 0
87 330 -38 0
87 -330 -88 0
-87 -330 88 0
-87 330 38 0
88 331 -79 0
88 -331 -89 0
-88 -331 89 0
-88 331 79 0
89 332 -90 0
89 -332 -344 0
89 -312 -332 0
-89 332 90 0
-89 312 -332 344 0
-90 313 345 0
90 -313 0
90 -345 0
91 330 -47 0
91 -330 -92 0
-91 -330 92 0
-91 330 47 0
92 331 -85 0
92 -331 -93 0
-92 -331 93 0
-92 331 85 0
93 -332 -344 0
93 332 -345 0
-93 332 345 0
-93 -332 344 0
94 330 -95 0
94 -330 -96 0
-94 -330 96 0
-94 330 95 0
95 -331 -67 0
95 331 -73 0
-95 331 73 0
-95 -331 67 0
96 331 -65 0
96 -331 -97 0
-96 -331 97 0
-96 331 65 0
97 332 -98 0
97 -332 -347 0
97 -315 -332 0
-97 332 98 0
-97 315 -332 347 0
-98 316 348 0
98 -316 0
98 -348 0
99 330 -100 0
99 -330 -101 0
-99 -330 101 0
-99 330 100 0
100 -331 -69 0
100 331 -76 0
-100 331 76 0
-100 -331 69 0
101 331 -102 0
101 -331 -103 0
-101 -331 103 0
-101 331 102 0
102 -332 -349 0
102 332 -350 0
-102 332 350 0
-102 -332 349 0
103 -332 -347 0
103 332 -348 0
-103 332 348 0
-103 -332 347 0
104 105 112 -117 0
104 -109 112 -117 0
-104 117 0
-104 -112 0
-104 -105 109 0
105 330 -78 0
105 -330 -106 0
-105 -330 106 0
-105 330 78 0
106 331 -89 0
106 -331 -107 0
-106 -331 107 0
-106 331 89 0
107 332 -108 0
107 -332 -342 0
107 -310 -332 0
-107 332 108 0
-107 310 -332 342 0
-108 311 343 0
108 -311 0
108 -343 0
109 330 -84 0
109 -330 -110 0
-109 -330 110 0
-109 330 84 0
110 331 -93 0
110 -331 -111 0
-110 -331 111 0
-110 331 93 0
111 -332 -342 0
111 332 -343 0
-111 332 343 0
-111 -332 342 0
112 330 -63 0
112 -330 -113 0
-112 -330 113 0
-112 330 63 0
113 -331 -114 0
113 331 -97 103 0
-113 -331 114 0
-113 331 97 0
-113 331 -103 0
114 332 346 -115 0
114 -332 345 -115 0
-114 115 0
-114 332 -346 0
-114 -332 -345 0
115 332 -116 0
115 -332 -345 0
115 -313 -332 0
-115 332 116 0
-115 313 -332 345 0
-116 314 346 0
116 -314 0
116 -346 0
117 -329 118 0
117 -329 -121 0
-117 329 0
-117 -118 121 0
-118 -330 119 0
-118 330 96 0
118 330 -96 0
118 -330 -119 0
119 331 -115 0
119 -331 -120 0
-119 -331 120 0
-119 331 115 0
120 -312 332 0
120 -332 -108 0
120 332 -344 0
-120 -332 108 0
-120 312 332 344 0
121 330 -101 0
121 -330 -122 0
-121 -330 122 0
-121 330 101 0
122 331 -123 0
122 -331 -124 0
-122 -331 124 0
-122 331 123 0
123 -332 -345 0
123 332 -346 0
-123 332 346 0
-123 -332 345 0
124 -332 -343 0
124 332 -344 0
-124 332 344 0
-124 -332 343 0
-125 -330 126 135 0
-125 330 126 134 0
125 -126 0
125 -330 -135 0
125 330 -134 0
-126 -331 127 131 0
-126 331 130 131 0
126 -131 0
126 -331 -127 0
126 331 -130 0
-127 -330 128 0
-127 55 128 129 0
127 -128 0
127 330 -55 0
127 330 -129 0
-128 -45 72 0
-128 34 -75 0
-128 34 72 0
-128 -45 -75 0
128 -34 45 0
128 -72 75 0
-129 332 59 0
-129 -332 -359 0
-129 327 -332 0
129 332 -59 0
129 -327 -332 359 0
-130 52 58 129 0
130 -129 0
130 -58 0
130 -52 0
-131 329 -332 132 0
-131 329 332 133 0
131 -329 0
131 -332 -132 0
131 332 -133 0
132 -325 357 0
-132 325 0
-132 -357 0
133 -326 358 0
-133 326 0
-133 -358 0
-134 332 51 0
-134 329 51 0
-134 -361 51 0
134 -51 0
134 -329 -332 361 0
-135 70 95 136 0
-135 70 -100 136 0
135 -70 0
135 -136 0
135 -95 100 0
-136 -44 81 0
-136 33 -83 0
-136 33 81 0
-136 -44 -83 0
136 -33 44 0
136 -81 83 0
-137 138 221 227 0
137 -138 0
137 -227 0
137 -221 0
138 -139 181 0
138 -329 181 0
138 -155 181 0
-138 -181 0
-138 329 139 155 0
-139 140 -151 0
-139 140 145 0
139 -140 0
139 -145 151 0
-140 -330 141 0
-140 330 113 0
140 330 -113 0
140 -330 -141 0
141 -331 -142 0
141 331 -120 124 0
-141 -331 142 0
-141 331 120 0
-141 331 -124 0
142 332 342 -143 0
142 -332 341 -143 0
-142 143 0
-142 332 -342 0
-142 -332 -341 0
143 332 -144 0
143 -332 -341 0
143 -309 -332 0
-143 332 144 0
-143 309 -332 341 0
-144 310 342 0
144 -310 0
144 -342 0
145 330 -106 0
145 -330 -146 0
-145 -330 146 0
-145 330 106 0
146 331 -147 0
146 -331 -149 0
-146 -331 149 0
-146 331 147 0
147 332 -148 0
147 -332 -340 0
147 -308 -332 0
-147 332 148 0
-147 308 -332 340 0
-148 309 341 0
148 -309 0
148 -341 0
149 -307 332 0
149 -332 -150 0
149 332 -339 0
-149 -332 150 0
-149 307 332 339 0
-150 306 338 0
150 -306 0
150 -338 0
151 330 -110 0
151 -330 -152 0
-151 -330 152 0
-151 330 110 0
152 331 -153 0
152 -331 -154 0
-152 -331 154 0
-152 331 153 0
153 -332 -340 0
153 332 -341 0
-153 332 341 0
-153 -332 340 0
154 -332 -338 0
154 332 -339 0
-154 332 339 0
-154 -332 338 0
-155 156 169 174 0
-155 156 169 -178 0
155 -156 0
155 -169 0
155 -174 178 0
-156 -159 161 0
-156 157 -165 0
-156 157 161 0
-156 -159 -165 0
156 -157 159 0
156 -161 165 0
157 330 -88 0
157 -330 -158 0
-157 -330 158 0
-157 330 88 0
158 331 -107 0
158 -331 -147 0
-158 -331 147 0
-158 331 107 0
159 330 -92 0
159 -330 -160 0
-159 -330 160 0
-159 330 92 0
160 331 -111 0
160 -331 -153 0
-160 -331 153 0
-160 331 111 0
161 330 -119 0
161 -330 -162 0
-161 -330 162 0
-161 330 119 0
162 331 -143 0
162 -331 -163 0
-162 -331 163 0
-162 331 143 0
163 332 -164 0
163 -332 -339 0
163 -307 -332 0
-163 332 164 0
-163 307 -332 339 0
-164 308 340 0
164 -308 0
164 -340 0
165 330 -122 0
165 -330 -166 0
-165 -330 166 0
-165 330 122 0
166 331 -167 0
166 -331 -168 0
-166 -331 168 0
-166 331 167 0
167 -332 -341 0
167 332 -342 0
-167 332 342 0
-167 -332 341 0
168 -332 -339 0
168 332 -340 0
-168 332 340 0
-168 -332 339 0
169 330 -141 0
169 -330 -170 172 0
-169 -330 170 0
-169 330 141 0
-169 -330 -172 0
170 331 -163 0
170 -331 -171 0
-170 -331 171 0
-170 331 163 0
171 332 -150 0
171 -332 -337 0
171 -305 -332 0
-171 332 150 0
-171 305 -332 337 0
172 331 -168 0
172 -331 -173 0
-172 -331 173 0
-172 331 168 0
173 -332 -337 0
173 332 -338 0
-173 332 338 0
-173 -332 337 0
174 330 -158 0
174 -330 -175 0
-174 -330 175 0
-174 330 158 0
175 331 -149 0
175 -331 -176 0
-175 -331 176 0
-175 331 149 0
176 332 -177 0
176 -332 -336 0
176 -304 -332 0
-176 332 177 0
-176 304 -332 336 0
-177 305 337 0
177 -305 0
177 -337 0
178 330 -160 0
178 -330 -179 0
-178 -330 179 0
-178 330 160 0
179 331 -154 0
179 -331 -180 0
-179 -331 180 0
-179 331 154 0
180 -332 -336 0
180 332 -337 0
-180 332 337 0
-180 -332 336 0
181 -182 209 215 0
181 -182 -212 215 0
-181 -215 0
-181 182 0
-181 -209 212 0
182 -329 183 192 203 0
-182 -203 0
-182 -192 0
-182 329 0
-182 -183 0
183 -184 188 0
-183 184 0
-183 -188 0
184 -330 -20 0
184 330 -185 0
-184 330 185 0
-184 -330 20 0
185 331 -176 0
185 -331 -186 0
-185 -331 186 0
-185 331 176 0
186 332 -187 0
186 -332 -334 0
186 -302 -332 0
-186 332 187 0
-186 302 -332 334 0
-187 303 335 0
187 -303 0
187 -335 0
188 -330 -189 0
188 330 -190 0
-188 330 190 0
-188 -330 189 0
189 331 332 -333 0
-189 333 0
-189 -332 0
-189 -331 0
190 331 -180 0
190 -331 -191 0
-190 -331 191 0
-190 331 180 0
191 -332 -334 0
191 332 -335 0
-191 332 335 0
-191 -332 334 0
192 -193 199 0
-192 193 0
-192 -199 0
193 330 -194 0
-193 -330 0
-193 194 0
194 331 -195 0
194 -331 -197 0
-194 -331 197 0
-194 331 195 0
195 332 -196 0
195 -332 -335 0
195 -303 -332 0
-195 332 196 0
-195 303 -332 335 0
-196 304 336 0
196 -304 0
196 -336 0
197 332 -198 0
197 -332 -333 0
197 -301 -332 0
-197 332 198 0
-197 301 -332 333 0
-198 302 334 0
198 -302 0
198 -334 0
199 330 -200 0
-199 -330 0
-199 200 0
200 331 -201 0
200 -331 -202 0
-200 -331 202 0
-200 331 201 0
201 -332 -335 0
201 332 -336 0
-201 332 336 0
-201 -332 335 0
202 -332 -333 0
202 332 -334 0
-202 332 334 0
-202 -332 333 0
203 -204 207 0
-203 204 0
-203 -207 0
204 330 -205 0
-204 -330 0
-204 205 0
205 -331 -206 0
205 331 -186 0
-205 331 186 0
-205 -331 206 0
206 -301 332 0
206 332 -333 0
-206 -332 0
-206 301 333 0
207 330 -208 0
-207 -330 0
-207 208 0
208 331 -191 0
208 -331 332 -333 0
-208 -331 -332 0
-208 331 191 0
-208 -331 333 0
209 330 -210 0
209 -330 -211 0
-209 -330 211 0
-209 330 210 0
210 331 -171 0
210 -331 -195 0
-210 -331 195 0
-210 331 171 0
211 331 -197 0
-211 -331 0
-211 197 0
212 330 -213 0
212 -330 -214 0
-212 -330 214 0
-212 330 213 0
213 331 -173 0
213 -331 -201 0
-213 -331 201 0
-213 331 173 0
214 331 332 -334 0
214 331 -332 -333 0
-214 -331 0
-214 -332 333 0
-214 332 334 0
-215 -217 218 0
-215 216 218 0
215 -218 0
215 -216 217 0
216 330 -175 0
216 -330 -205 0
-216 -330 205 0
-216 330 175 0
217 330 -179 0
217 -330 -208 0
-217 -330 208 0
-217 330 179 0
218 -219 220 0
-218 219 0
-218 -220 0
219 330 -170 0
219 -330 -194 0
-219 -330 194 0
-219 330 170 0
220 330 -172 0
220 -330 -200 0
-220 -330 200 0
-220 330 172 0
221 329 -224 0
221 -329 -222 223 0
-221 -329 -223 0
-221 329 224 0
-221 -329 222 0
222 330 -211 0
-222 -330 0
-222 211 0
223 330 -214 0
-223 -330 0
-223 214 0
224 -225 226 0
-224 225 0
-224 -226 0
225 330 -162 0
225 -330 -210 0
-225 -330 210 0
-225 330 162 0
226 330 -166 0
226 -330 -213 0
-226 -330 213 0
-226 330 166 0
227 -329 22 -228 0
227 329 -228 230 0
-227 228 0
-227 329 -230 0
-227 -329 -22 0
228 -329 -19 0
228 329 -229 0
-228 329 229 0
-228 -329 19 0
229 330 -146 0
229 -330 -185 0
-229 -330 185 0
-229 330 146 0
230 330 -152 0
230 -330 -190 0
-230 -330 190 0
-230 330 152 0
-231 232 237 242 273 0
231 -273 0
231 -232 0
231 -242 0
231 -237 0
-232 -233 0
-232 183 219 0
-232 183 -220 0
232 -183 233 0
232 -219 220 233 0
-233 329 234 0
233 -329 0
233 -234 0
-234 314 10 14 235 0
234 -314 0
234 -235 0
234 -14 0
234 -10 0
-235 312 313 236 0
235 -236 0
235 -313 0
235 -312 0
-236 6 28 0
236 -6 0
236 -28 0
-237 203 238 0
-237 -233 238 0
-237 -199 203 233 0
237 -203 233 0
237 -233 -238 0
237 199 -238 0
238 329 7 -193 239 0
-238 -329 0
-238 -239 0
-238 193 0
-238 -7 0
-239 5 240 241 0
239 -5 0
239 -240 0
239 -241 0
-240 305 306 307 6 0
240 -6 0
240 -307 0
240 -305 0
240 -306 0
-241 310 311 312 16 0
241 -16 0
241 -312 0
241 -310 0
241 -311 0
-242 243 246 0
-242 -14 246 0
-242 -245 246 0
242 -246 0
242 14 -243 245 0
243 312 -138 244 0
-243 -244 0
-243 138 0
-243 -312 0
-244 317 318 4 0
244 -4 0
244 -318 0
244 -317 0
-245 319 320 9 0
245 -9 0
245 -320 0
245 -319 0
-246 247 255 0
-246 -240 255 0
-246 -252 255 0
246 -255 0
246 240 -247 252 0
247 248 16 26 -249 0
-247 -26 0
-247 249 0
-247 -248 0
-247 -16 0
-248 310 311 0
248 -310 0
248 -311 0
-249 328 250 0
-249 -328 251 0
249 -328 -251 0
249 328 -250 0
-250 -329 157 0
-250 329 32 0
250 329 -32 0
250 -329 -157 0
251 329 -216 0
-251 -329 0
-251 216 0
252 -328 25 -254 0
252 328 25 -253 0
-252 -25 0
-252 -328 254 0
-252 328 253 0
-253 -329 159 0
-253 329 43 0
253 329 -43 0
253 -329 -159 0
254 329 -217 0
-254 -329 0
-254 217 0
-255 -234 256 263 0
-255 227 256 263 0
255 -263 0
255 -256 0
255 -227 234 0
256 244 257 -258 260 0
-256 258 0
-256 -260 0
-256 -244 0
-256 -257 0
-257 310 311 312 15 0
257 -15 0
257 -312 0
257 -310 0
257 -311 0
258 245 -259 0
-258 -245 0
-258 259 0
259 329 -222 0
-259 -329 0
-259 222 0
260 329 10 241 -261 0
-260 -329 0
-260 261 0
-260 -241 0
-260 -10 0
261 5 -223 236 262 0
-261 -262 0
-261 -5 0
-261 -236 0
-261 223 0
-262 305 306 307 0
262 -305 0
262 -307 0
262 -306 0
-263 264 269 0
-263 -25 269 0
-263 -267 269 0
263 -269 0
263 25 -264 267 0
264 -87 266 0
264 -265 266 0
-264 -266 0
-264 87 265 0
-265 328 329 0
265 -328 0
265 -329 0
-266 329 -204 0
-266 328 -174 0
-266 328 329 0
266 -329 174 0
266 -328 204 0
266 -328 -329 0
267 -178 -268 0
267 329 -268 0
-267 268 0
-267 -329 178 0
268 328 -91 0
268 -328 329 -207 0
268 328 -329 0
-268 -328 -329 0
-268 -328 207 0
-268 328 329 91 0
-269 251 270 0
-269 -254 270 0
-269 -234 270 0
269 -270 0
269 234 -251 254 0
270 234 -271 272 0
-270 -234 0
-270 271 0
-270 -272 0
271 329 -209 0
-271 -329 0
-271 209 0
272 329 -212 0
-272 -329 0
-272 212 0
-273 221 274 0
-273 -7 274 0
-273 -239 274 0
273 -274 0
273 7 -221 239 0
-274 275 278 282 0
-274 275 -280 282 0
274 -275 0
274 -282 0
274 -278 280 0
275 328 -276 0
275 329 -192 -276 0
-275 276 0
-275 -328 192 0
-275 -328 -329 0
276 25 -277 0
-276 -25 0
-276 277 0
277 -328 329 0
277 -329 -169 0
277 329 -112 0
-277 -329 169 0
-277 328 329 112 0
278 328 25 -279 0
278 -328 25 -271 0
-278 -25 0
-278 328 279 0
-278 -328 271 0
-279 -329 161 0
-279 329 94 0
279 329 -94 0
279 -329 -161 0
280 328 25 -281 0
280 -328 25 -272 0
-280 -25 0
-280 -328 272 0
-280 328 281 0
281 329 -99 0
281 -329 -165 0
-281 -329 165 0
-281 329 99 0
-282 283 292 299 0
-282 -25 283 292 0
282 -292 0
282 -283 0
282 25 -299 0
283 25 -284 0
283 25 288 -290 0
-283 -25 0
-283 284 290 0
-283 284 -288 0
284 328 285 -287 0
284 -328 -259 285 0
-284 -285 0
-284 -328 259 0
-284 328 287 0
285 328 -286 0
285 329 -223 -286 0
-285 286 0
-285 -328 223 0
-285 -328 -329 0
286 -328 329 0
286 -329 -226 0
286 329 -121 0
-286 -329 226 0
-286 328 329 121 0
287 -329 -225 0
287 329 -118 0
-287 329 118 0
-287 -329 225 0
-288 -328 -329 0
-288 328 289 0
-288 -328 188 0
288 328 -289 0
288 -328 329 -188 0
-289 -329 151 0
-289 329 82 0
289 329 -82 0
289 -329 -151 0
290 328 -291 0
290 -328 329 -184 0
-290 -328 -329 0
-290 328 291 0
-290 -328 184 0
291 -329 -145 0
291 329 -77 0
-291 329 77 0
-291 -329 145 0
292 -328 294 296 0
292 -293 294 296 0
-292 -294 0
-292 -296 0
-292 328 293 0
293 329 -105 0
293 -329 -229 0
-293 -329 229 0
-293 329 105 0
-294 327 5 257 295 0
294 -327 0
294 -295 0
294 -257 0
294 -5 0
-295 328 29 236 0
-295 -18 29 236 0
295 -236 0
295 -29 0
295 -328 18 0
296 329 297 -298 0
296 -230 297 -298 0
-296 298 0
-296 -297 0
-296 -329 230 0
-297 -21 257 0
-297 328 257 0
297 -257 0
297 -328 21 0
298 6 27 -265 0
298 6 27 -109 0
-298 -6 0
-298 -27 0
-298 109 265 0
-299 -328 -329 0
-299 328 300 0
-299 -328 218 0
299 328 -300 0
299 -328 329 -218 0
-300 329 62 0
-300 -329 140 0
300 -329 -140 0
300 329 -62 0
-365 0
2 0

